; benchmark generated from python API
(set-info :status unknown)
(declare-fun x6 () Bool)
(declare-fun x5 () Bool)
(declare-fun x4 () Bool)
(declare-fun x3 () Bool)
(declare-fun x2 () Bool)
(declare-fun x1 () Bool)
(assert
 (let (($x17 (not x5)))
(let (($x16 (not x4)))
(let (($x18 (or $x16 $x17 x6)))
(let (($x15 (or x4 x5 x6)))
(let (($x13 (not x2)))
(let (($x12 (not x1)))
(let (($x14 (or $x12 $x13 x3)))
(let (($x11 (or x1 x2 x3)))
(and $x11 $x14 $x15 $x18))))))))))
(check-sat)
